NAME : eil51
TYPE : OP
DIMENSION : 51
COST_LIMIT : 213
ROUTE_NODES : 26
ROUTE_SCORE : 1668
ROUTE_COST : 211
NODE_SEQUENCE_SECTION
1
32
11
38
16
50
21
34
30
10
33
45
15
37
17
4
47
18
6
23
7
26
8
31
28
22
-1
DEPOT_SECTION
1
-1
EOF
